15
1 0 1
2 0 2
3 0 3
3 1 3
4 2 2
4 3 3
5 0 2
5 1 1
5 2 2
6 0 2
6 1 2
6 2 1
6 3 3
6 5 2
7 1 2
7 2 2
7 3 2
7 4 2
7 5 1
8 1 3
8 2 2
8 3 1
8 4 2
8 7 2
9 0 2
9 4 3
9 5 1
9 7 2
9 8 1
10 0 3
10 5 3
10 6 3
10 9 2
11 0 1
11 3 3
11 4 1
11 6 3
11 7 1
11 8 3
11 9 1
11 10 1
12 4 3
12 5 2
12 6 1
12 7 1
12 8 1
12 10 3
13 0 2
13 2 3
13 3 1
13 6 1
13 7 1
13 9 2
13 10 3
13 11 3
13 12 1
14 0 2
14 2 2
14 3 3
14 6 2
14 8 3
14 12 1
